% seed = 7990694

mint = 58;
% maxt = 220;

nActs = 42;
dur = [0,4,4,3,8,4,3,7,8,9,10,5,6,10,5,9,8,4,3,5,5,2,8,9,5,2,1,5,3,6,7,6,5,8,1,9,10,5,1,5,2,0];

nSkills = 4;
sreq = [| 0,0,0,0,
	| 4,0,0,7,
	| 0,0,3,5,
	| 6,0,7,1,
	| 7,7,0,0,
	| 0,4,0,6,
	| 3,4,1,3,
	| 3,0,5,2,
	| 0,7,0,1,
	| 2,3,2,3,
	| 3,7,0,7,
	| 0,6,2,0,
	| 7,4,3,0,
	| 4,0,7,4,
	| 4,4,3,2,
	| 4,0,0,5,
	| 2,3,5,3,
	| 1,0,7,3,
	| 4,5,4,3,
	| 0,2,2,6,
	| 4,5,4,3,
	| 0,3,0,4,
	| 3,0,0,6,
	| 7,7,5,0,
	| 5,4,0,0,
	| 2,6,0,7,
	| 2,3,2,3,
	| 5,0,7,0,
	| 5,2,6,2,
	| 0,0,2,7,
	| 4,6,0,4,
	| 3,6,5,2,
	| 3,3,3,3,
	| 0,3,0,7,
	| 6,4,4,1,
	| 4,3,7,0,
	| 3,5,0,0,
	| 3,4,0,7,
	| 0,2,6,2,
	| 5,5,2,0,
	| 2,3,5,2,
	| 0,0,0,0, |];

nResources = 38;
mastery = [| true,false,false,false,
	| false,false,true,true,
	| true,false,true,false,
	| false,true,true,false,
	| false,true,false,false,
	| false,true,false,false,
	| true,true,true,false,
	| true,true,false,false,
	| false,false,false,true,
	| true,false,true,false,
	| true,true,true,false,
	| true,true,false,true,
	| false,false,false,true,
	| false,true,false,false,
	| true,true,false,false,
	| true,true,true,false,
	| true,false,false,false,
	| true,false,true,true,
	| true,false,true,true,
	| false,true,true,true,
	| false,true,true,true,
	| true,false,false,true,
	| true,true,true,false,
	| true,true,true,false,
	| false,false,true,true,
	| true,false,true,false,
	| true,false,true,false,
	| true,false,true,true,
	| false,true,false,true,
	| false,false,true,false,
	| false,false,false,true,
	| false,false,true,true,
	| false,false,true,true,
	| false,true,true,true,
	| false,false,false,true,
	| true,true,false,true,
	| false,true,true,false,
	| true,true,false,true, |];

nPrecs = 61;
pred = [1,1,1,2,2,2,3,3,3,4,4,5,5,6,6,7,8,8,9,10,10,10,11,11,11,12,12,12,13,14,15,16,17,18,19,20,20,20,21,22,23,24,25,26,27,27,28,29,29,30,31,32,33,34,35,36,37,38,39,40,41];
succ = [2,3,4,10,19,7,9,17,18,5,6,31,8,25,36,16,11,28,26,12,22,23,21,13,24,20,14,15,35,25,37,25,29,31,39,33,41,27,32,24,39,30,34,36,35,40,33,35,38,36,40,41,34,37,37,38,40,39,42,42,42];

nUnrels = 557;
unpred = [2,2,2,2,2,2,2,2,2,2,2,2,2,2,2,2,3,3,3,3,3,3,3,3,3,3,3,3,3,3,3,3,3,3,3,3,3,3,3,3,3,3,4,4,4,4,4,4,4,4,4,4,4,4,4,4,4,4,5,5,5,5,5,5,5,5,5,5,5,5,5,5,5,5,5,5,6,6,6,6,6,6,6,6,6,6,6,6,6,6,6,6,6,6,6,6,6,6,6,6,6,6,6,6,7,7,7,7,7,7,7,7,7,7,7,7,7,7,7,7,7,7,7,7,7,7,7,7,7,7,7,7,7,8,8,8,8,8,8,8,8,8,8,8,8,8,8,8,8,8,9,9,9,9,9,9,9,9,9,9,9,9,9,9,9,9,9,9,9,9,9,9,9,9,9,9,9,9,10,10,10,10,10,10,10,10,10,10,10,10,11,11,11,11,11,11,11,11,11,11,11,11,11,11,11,11,11,11,12,12,12,12,12,12,12,12,12,12,12,12,12,12,12,12,12,12,13,13,13,13,13,13,13,13,13,13,13,13,13,13,13,13,13,13,13,13,13,13,13,13,13,14,14,14,14,14,14,14,14,14,14,14,14,14,14,14,14,14,14,14,14,14,14,14,15,15,15,15,15,15,15,15,15,15,15,15,15,15,15,15,15,15,15,15,15,15,15,15,16,16,16,16,16,16,16,16,16,16,16,16,16,16,16,16,16,16,16,16,16,17,17,17,17,17,17,17,17,17,17,17,17,17,17,17,17,17,17,18,18,18,18,18,18,18,18,18,18,18,18,18,18,18,18,18,18,18,18,18,19,19,19,19,19,19,19,19,19,19,19,19,19,19,19,19,19,19,19,19,19,20,20,20,20,20,20,20,20,20,20,20,20,20,20,21,21,21,21,21,21,21,21,21,21,21,21,21,21,21,21,21,21,22,22,22,22,22,22,22,22,22,22,22,22,22,22,23,23,23,23,23,23,23,23,23,23,23,23,23,23,23,23,23,24,24,24,24,24,24,24,24,24,24,24,24,24,25,25,25,25,25,25,25,25,25,25,25,25,25,26,26,26,26,26,26,26,26,26,26,26,26,27,27,27,27,27,27,27,27,27,27,27,28,28,28,28,28,28,28,28,28,29,29,29,29,29,29,29,30,30,30,30,30,30,30,30,31,31,31,31,31,31,31,31,31,32,32,32,32,32,32,32,32,33,33,33,33,33,34,34,34,34,34,35,35,35,35,36,36,36,37,37,37,38,38,39,39,40];
unsucc = [3,4,5,6,8,9,11,13,17,18,21,26,28,29,31,32,4,5,6,7,8,10,11,12,13,14,15,16,19,20,21,22,23,24,25,27,28,30,32,33,34,41,7,9,10,12,14,15,16,17,18,19,20,22,23,26,27,29,6,7,9,10,12,14,15,16,17,18,19,20,22,23,25,26,27,29,7,8,9,10,11,12,13,14,15,16,17,18,19,20,21,22,23,24,26,27,28,29,30,31,32,33,35,41,8,9,10,11,12,13,14,15,17,18,19,20,21,22,23,24,26,27,28,29,30,31,32,33,35,36,38,39,41,9,10,12,14,15,16,17,18,19,20,22,23,25,26,27,29,31,10,11,12,13,14,15,16,17,18,19,20,21,22,23,24,25,27,28,29,30,31,32,33,34,35,37,40,41,11,13,16,17,18,19,21,26,28,29,31,32,12,14,15,16,17,18,19,20,22,23,25,26,27,28,29,31,33,34,13,16,17,18,19,21,22,23,24,26,28,29,30,31,32,36,38,39,14,15,16,17,18,19,20,21,22,23,24,25,26,27,28,29,30,31,32,33,34,36,38,39,41,15,16,17,18,19,20,21,22,23,24,26,27,28,29,30,31,32,33,35,36,38,39,41,16,17,18,19,20,21,22,23,24,25,26,27,28,29,30,31,32,33,34,35,36,38,39,41,17,18,19,20,21,22,23,24,26,27,28,29,30,31,32,33,35,36,38,39,41,18,19,20,21,22,23,24,25,26,27,28,30,31,32,33,34,36,41,19,20,21,22,23,24,25,26,27,28,29,30,32,33,34,35,36,37,38,39,41,20,21,22,23,24,25,26,27,28,29,30,31,32,33,34,35,36,37,38,40,41,21,22,23,24,25,26,28,29,30,31,32,36,38,39,22,23,24,25,26,27,28,29,30,31,33,34,35,36,37,38,39,40,23,25,26,27,28,29,31,32,33,34,35,37,40,41,24,25,26,27,28,29,30,31,32,33,34,35,36,37,38,40,41,25,26,27,28,29,31,32,33,34,35,37,40,41,26,27,28,29,30,31,32,33,35,36,38,39,41,27,28,29,30,31,32,33,34,35,37,40,41,28,29,30,31,32,33,34,36,38,39,41,29,30,31,32,35,36,38,39,41,30,31,32,33,34,36,41,31,32,33,34,35,37,40,41,32,33,34,35,36,37,38,39,41,33,34,35,36,37,38,39,40,35,36,38,39,41,35,36,38,39,41,36,38,39,41,37,40,41,38,39,41,40,41,40,41,41];

USEFUL_RES = [{},
	{1,2,3,7,8,9,10,11,12,13,15,16,17,18,19,20,21,22,23,24,25,26,27,28,29,31,32,33,34,35,36,38},
	{2,3,4,7,9,10,11,12,13,16,18,19,20,21,22,23,24,25,26,27,28,29,30,31,32,33,34,35,36,37,38},
	{1,2,3,4,7,8,9,10,11,12,13,15,16,17,18,19,20,21,22,23,24,25,26,27,28,29,30,31,32,33,34,35,36,37,38},
	{1,3,4,5,6,7,8,10,11,12,14,15,16,17,18,19,20,21,22,23,24,26,27,28,29,34,36,37,38},
	{2,4,5,6,7,8,9,11,12,13,14,15,16,18,19,20,21,22,23,24,25,28,29,31,32,33,34,35,36,37,38},
	{1,2,3,4,5,6,7,8,9,10,11,12,13,14,15,16,17,18,19,20,21,22,23,24,25,26,27,28,29,30,31,32,33,34,35,36,37,38},
	{1,2,3,4,7,8,9,10,11,12,13,15,16,17,18,19,20,21,22,23,24,25,26,27,28,29,30,31,32,33,34,35,36,37,38},
	{2,4,5,6,7,8,9,11,12,13,14,15,16,18,19,20,21,22,23,24,25,28,29,31,32,33,34,35,36,37,38},
	{1,2,3,4,5,6,7,8,9,10,11,12,13,14,15,16,17,18,19,20,21,22,23,24,25,26,27,28,29,30,31,32,33,34,35,36,37,38},
	{1,2,3,4,5,6,7,8,9,10,11,12,13,14,15,16,17,18,19,20,21,22,23,24,25,26,27,28,29,31,32,33,34,35,36,37,38},
	{2,3,4,5,6,7,8,10,11,12,14,15,16,18,19,20,21,23,24,25,26,27,28,29,30,32,33,34,36,37,38},
	{1,2,3,4,5,6,7,8,10,11,12,14,15,16,17,18,19,20,21,22,23,24,25,26,27,28,29,30,32,33,34,36,37,38},
	{1,2,3,4,7,8,9,10,11,12,13,15,16,17,18,19,20,21,22,23,24,25,26,27,28,29,30,31,32,33,34,35,36,37,38},
	{1,2,3,4,5,6,7,8,9,10,11,12,13,14,15,16,17,18,19,20,21,22,23,24,25,26,27,28,29,30,31,32,33,34,35,36,37,38},
	{1,2,3,7,8,9,10,11,12,13,15,16,17,18,19,20,21,22,23,24,25,26,27,28,29,31,32,33,34,35,36,38},
	{1,2,3,4,5,6,7,8,9,10,11,12,13,14,15,16,17,18,19,20,21,22,23,24,25,26,27,28,29,30,31,32,33,34,35,36,37,38},
	{1,2,3,4,7,8,9,10,11,12,13,15,16,17,18,19,20,21,22,23,24,25,26,27,28,29,30,31,32,33,34,35,36,37,38},
	{1,2,3,4,5,6,7,8,9,10,11,12,13,14,15,16,17,18,19,20,21,22,23,24,25,26,27,28,29,30,31,32,33,34,35,36,37,38},
	{2,3,4,5,6,7,8,9,10,11,12,13,14,15,16,18,19,20,21,22,23,24,25,26,27,28,29,30,31,32,33,34,35,36,37,38},
	{1,2,3,4,5,6,7,8,9,10,11,12,13,14,15,16,17,18,19,20,21,22,23,24,25,26,27,28,29,30,31,32,33,34,35,36,37,38},
	{2,4,5,6,7,8,9,11,12,13,14,15,16,18,19,20,21,22,23,24,25,28,29,31,32,33,34,35,36,37,38},
	{1,2,3,7,8,9,10,11,12,13,15,16,17,18,19,20,21,22,23,24,25,26,27,28,29,31,32,33,34,35,36,38},
	{1,2,3,4,5,6,7,8,10,11,12,14,15,16,17,18,19,20,21,22,23,24,25,26,27,28,29,30,32,33,34,36,37,38},
	{1,3,4,5,6,7,8,10,11,12,14,15,16,17,18,19,20,21,22,23,24,26,27,28,29,34,36,37,38},
	{1,2,3,4,5,6,7,8,9,10,11,12,13,14,15,16,17,18,19,20,21,22,23,24,25,26,27,28,29,31,32,33,34,35,36,37,38},
	{1,2,3,4,5,6,7,8,9,10,11,12,13,14,15,16,17,18,19,20,21,22,23,24,25,26,27,28,29,30,31,32,33,34,35,36,37,38},
	{1,2,3,4,7,8,10,11,12,15,16,17,18,19,20,21,22,23,24,25,26,27,28,30,32,33,34,36,37,38},
	{1,2,3,4,5,6,7,8,9,10,11,12,13,14,15,16,17,18,19,20,21,22,23,24,25,26,27,28,29,30,31,32,33,34,35,36,37,38},
	{2,3,4,7,9,10,11,12,13,16,18,19,20,21,22,23,24,25,26,27,28,29,30,31,32,33,34,35,36,37,38},
	{1,2,3,4,5,6,7,8,9,10,11,12,13,14,15,16,17,18,19,20,21,22,23,24,25,26,27,28,29,31,32,33,34,35,36,37,38},
	{1,2,3,4,5,6,7,8,9,10,11,12,13,14,15,16,17,18,19,20,21,22,23,24,25,26,27,28,29,30,31,32,33,34,35,36,37,38},
	{1,2,3,4,5,6,7,8,9,10,11,12,13,14,15,16,17,18,19,20,21,22,23,24,25,26,27,28,29,30,31,32,33,34,35,36,37,38},
	{2,4,5,6,7,8,9,11,12,13,14,15,16,18,19,20,21,22,23,24,25,28,29,31,32,33,34,35,36,37,38},
	{1,2,3,4,5,6,7,8,9,10,11,12,13,14,15,16,17,18,19,20,21,22,23,24,25,26,27,28,29,30,31,32,33,34,35,36,37,38},
	{1,2,3,4,5,6,7,8,10,11,12,14,15,16,17,18,19,20,21,22,23,24,25,26,27,28,29,30,32,33,34,36,37,38},
	{1,3,4,5,6,7,8,10,11,12,14,15,16,17,18,19,20,21,22,23,24,26,27,28,29,34,36,37,38},
	{1,2,3,4,5,6,7,8,9,10,11,12,13,14,15,16,17,18,19,20,21,22,23,24,25,26,27,28,29,31,32,33,34,35,36,37,38},
	{2,3,4,5,6,7,8,9,10,11,12,13,14,15,16,18,19,20,21,22,23,24,25,26,27,28,29,30,31,32,33,34,35,36,37,38},
	{1,2,3,4,5,6,7,8,10,11,12,14,15,16,17,18,19,20,21,22,23,24,25,26,27,28,29,30,32,33,34,36,37,38},
	{1,2,3,4,5,6,7,8,9,10,11,12,13,14,15,16,17,18,19,20,21,22,23,24,25,26,27,28,29,30,31,32,33,34,35,36,37,38},
	{}];

POTENTIAL_ACT = [{2,4,5,7,8,10,11,13,14,15,16,17,18,19,21,23,24,25,26,27,28,29,31,32,33,35,36,37,38,40,41},
	{2,3,4,6,7,8,9,10,11,12,13,14,15,16,17,18,19,20,21,22,23,24,26,27,28,29,30,31,32,33,34,35,36,38,39,40,41},
	{2,3,4,5,7,8,10,11,12,13,14,15,16,17,18,19,20,21,23,24,25,26,27,28,29,30,31,32,33,35,36,37,38,39,40,41},
	{3,4,5,6,7,8,9,10,11,12,13,14,15,17,18,19,20,21,22,24,25,26,27,28,29,30,31,32,33,34,35,36,37,38,39,40,41},
	{5,6,7,9,10,11,12,13,15,17,19,20,21,22,24,25,26,27,29,31,32,33,34,35,36,37,38,39,40,41},
	{5,6,7,9,10,11,12,13,15,17,19,20,21,22,24,25,26,27,29,31,32,33,34,35,36,37,38,39,40,41},
	{2,3,4,5,6,7,8,9,10,11,12,13,14,15,16,17,18,19,20,21,22,23,24,25,26,27,28,29,30,31,32,33,34,35,36,37,38,39,40,41},
	{2,4,5,6,7,8,9,10,11,12,13,14,15,16,17,18,19,20,21,22,23,24,25,26,27,28,29,31,32,33,34,35,36,37,38,39,40,41},
	{2,3,4,6,7,8,9,10,11,14,15,16,17,18,19,20,21,22,23,26,27,29,30,31,32,33,34,35,38,39,41},
	{2,3,4,5,7,8,10,11,12,13,14,15,16,17,18,19,20,21,23,24,25,26,27,28,29,30,31,32,33,35,36,37,38,39,40,41},
	{2,3,4,5,6,7,8,9,10,11,12,13,14,15,16,17,18,19,20,21,22,23,24,25,26,27,28,29,30,31,32,33,34,35,36,37,38,39,40,41},
	{2,3,4,5,6,7,8,9,10,11,12,13,14,15,16,17,18,19,20,21,22,23,24,25,26,27,28,29,30,31,32,33,34,35,36,37,38,39,40,41},
	{2,3,4,6,7,8,9,10,11,14,15,16,17,18,19,20,21,22,23,26,27,29,30,31,32,33,34,35,38,39,41},
	{5,6,7,9,10,11,12,13,15,17,19,20,21,22,24,25,26,27,29,31,32,33,34,35,36,37,38,39,40,41},
	{2,4,5,6,7,8,9,10,11,12,13,14,15,16,17,18,19,20,21,22,23,24,25,26,27,28,29,31,32,33,34,35,36,37,38,39,40,41},
	{2,3,4,5,6,7,8,9,10,11,12,13,14,15,16,17,18,19,20,21,22,23,24,25,26,27,28,29,30,31,32,33,34,35,36,37,38,39,40,41},
	{2,4,5,7,8,10,11,13,14,15,16,17,18,19,21,23,24,25,26,27,28,29,31,32,33,35,36,37,38,40,41},
	{2,3,4,5,6,7,8,9,10,11,12,13,14,15,16,17,18,19,20,21,22,23,24,25,26,27,28,29,30,31,32,33,34,35,36,37,38,39,40,41},
	{2,3,4,5,6,7,8,9,10,11,12,13,14,15,16,17,18,19,20,21,22,23,24,25,26,27,28,29,30,31,32,33,34,35,36,37,38,39,40,41},
	{2,3,4,5,6,7,8,9,10,11,12,13,14,15,16,17,18,19,20,21,22,23,24,25,26,27,28,29,30,31,32,33,34,35,36,37,38,39,40,41},
	{2,3,4,5,6,7,8,9,10,11,12,13,14,15,16,17,18,19,20,21,22,23,24,25,26,27,28,29,30,31,32,33,34,35,36,37,38,39,40,41},
	{2,3,4,5,6,7,8,9,10,11,13,14,15,16,17,18,19,20,21,22,23,24,25,26,27,28,29,30,31,32,33,34,35,36,37,38,39,40,41},
	{2,3,4,5,6,7,8,9,10,11,12,13,14,15,16,17,18,19,20,21,22,23,24,25,26,27,28,29,30,31,32,33,34,35,36,37,38,39,40,41},
	{2,3,4,5,6,7,8,9,10,11,12,13,14,15,16,17,18,19,20,21,22,23,24,25,26,27,28,29,30,31,32,33,34,35,36,37,38,39,40,41},
	{2,3,4,6,7,8,9,10,11,12,13,14,15,16,17,18,19,20,21,22,23,24,26,27,28,29,30,31,32,33,34,35,36,38,39,40,41},
	{2,3,4,5,7,8,10,11,12,13,14,15,16,17,18,19,20,21,23,24,25,26,27,28,29,30,31,32,33,35,36,37,38,39,40,41},
	{2,3,4,5,7,8,10,11,12,13,14,15,16,17,18,19,20,21,23,24,25,26,27,28,29,30,31,32,33,35,36,37,38,39,40,41},
	{2,3,4,5,6,7,8,9,10,11,12,13,14,15,16,17,18,19,20,21,22,23,24,25,26,27,28,29,30,31,32,33,34,35,36,37,38,39,40,41},
	{2,3,4,5,6,7,8,9,10,11,12,13,14,15,16,17,18,19,20,21,22,23,24,25,26,27,29,30,31,32,33,34,35,36,37,38,39,40,41},
	{3,4,7,8,10,12,13,14,15,17,18,19,20,21,24,27,28,29,30,32,33,35,36,39,40,41},
	{2,3,4,6,7,8,9,10,11,14,15,16,17,18,19,20,21,22,23,26,27,29,30,31,32,33,34,35,38,39,41},
	{2,3,4,6,7,8,9,10,11,12,13,14,15,16,17,18,19,20,21,22,23,24,26,27,28,29,30,31,32,33,34,35,36,38,39,40,41},
	{2,3,4,6,7,8,9,10,11,12,13,14,15,16,17,18,19,20,21,22,23,24,26,27,28,29,30,31,32,33,34,35,36,38,39,40,41},
	{2,3,4,5,6,7,8,9,10,11,12,13,14,15,16,17,18,19,20,21,22,23,24,25,26,27,28,29,30,31,32,33,34,35,36,37,38,39,40,41},
	{2,3,4,6,7,8,9,10,11,14,15,16,17,18,19,20,21,22,23,26,27,29,30,31,32,33,34,35,38,39,41},
	{2,3,4,5,6,7,8,9,10,11,12,13,14,15,16,17,18,19,20,21,22,23,24,25,26,27,28,29,30,31,32,33,34,35,36,37,38,39,40,41},
	{3,4,5,6,7,8,9,10,11,12,13,14,15,17,18,19,20,21,22,24,25,26,27,28,29,30,31,32,33,34,35,36,37,38,39,40,41},
	{2,3,4,5,6,7,8,9,10,11,12,13,14,15,16,17,18,19,20,21,22,23,24,25,26,27,28,29,30,31,32,33,34,35,36,37,38,39,40,41}];
